# 54863
param n := 30;
param s := 1;
set E :=  (0,9) (1,28) (2,18) (3,9) (3,15) (3,18) (3,19) (3,20) (3,26) (4,23) (5,23) (6,28) (7,12) (7,22) (8,26) (10,29) (11,16) (12,23) (13,14) (13,15) (15,21) (15,24) (15,29) (16,26) (17,18) (18,27) (23,25) (23,26) (25,28);
